DIMENSION: 7
EDGE_WEIGHT_TYPE: EXPLICIT
EDGE_WEIGHT_FORMAT: FULL_MATRIX
EDGE_WEIGHT_SECTION:
32767 71 75 32767 32767 32767 32767 
71 32767 56 32767 29 32767 32767 
75 56 32767 86 32767 32767 32767 
32767 32767 86 32767 69 32767 62 
32767 29 32767 69 32767 51 22 
32767 32767 32767 32767 51 32767 32767 
32767 32767 32767 62 22 32767 32767 
EOF